data;

param num_top:=2;

#nodes and edges of the physical network
param n := 10;

set E := (1,2) (1,3) (1,7) (2,4) (2,7) (3,5) (4,8) (5,6) (5,7) (6,7) (6,9) (7,8) (7,9) (8,10) (9,10) ;

#nodes and edges of the virtual networks
set Nl[1] := 4 10 5 8 3 ;
set Nl[2] := 4 3 8 7 9 ;

set El[1] := (4,10) (5,10) (5,8) (3,8) (3,4) (4,8) (3,10) (4,5) (8,10) (3,5) ;
set El[2] := (3,4) (3,8) (7,8) (7,9) (4,9) (8,9) (3,7) (3,9) (4,7) (4,8) ;
